(set-info :source |printed by MathSAT|)
(declare-fun a_1 () (Array Int Int))
(declare-fun .y.7 () (Array Int Int))
(declare-fun i_0 () Int)
(declare-fun .y.8 () Int)
(declare-fun j_1 () Int)
(declare-fun .y.9 () Int)
(declare-fun n_1 () Int)
(declare-fun .y.10 () Int)
(declare-fun .loc.6 () Bool)
(declare-fun .loc.11 () Bool)
(declare-fun i1_0 () Int)
(define-fun .def_8 () (Array Int Int) (! a_1 :next |.y.7|))
(define-fun .def_10 () Int (! i_0 :next |.y.8|))
(define-fun .def_12 () Int (! j_1 :next |.y.9|))
(define-fun .def_14 () Int (! n_1 :next |.y.10|))
(define-fun .def_16 () Bool (! .loc.6 :next |.loc.11|))
(define-fun .def_26 () Int (! i1_0 :next |.xtv.1|))
(define-fun .def_60 () Bool (= .def_10 1))
(define-fun .def_57 () Bool (<= .def_12 0))
(define-fun .def_58 () Bool (not .def_57))
(define-fun .def_61 () Bool (and .def_58 .def_60))
(define-fun .def_51 () Bool (! (not .def_16) :invar-property 0))
(define-fun .def_62 () Bool (! (and .def_51 .def_61) :init true))
(define-fun .def_53 () Bool (<= .def_26 0))
(define-fun .def_54 () Bool (not .def_53))
(define-fun .def_55 () Bool (and .def_51 .def_54))
(define-fun .def_43 () Int (select .def_8 .def_26))
(define-fun .def_44 () Int (* (- 1) .def_43))
(define-fun .def_45 () Int (+ .def_26 .def_44))
(define-fun .def_46 () Bool (<= .def_45 (- 2)))
(define-fun .def_47 () Bool (not .def_46))
(define-fun .def_39 () Bool (<= .def_14 .def_26))
(define-fun .def_40 () Bool (not .def_39))
(define-fun .def_19 () Bool (<= .def_14 .def_10))
(define-fun .def_41 () Bool (and .def_19 .def_40))
(define-fun .def_48 () Bool (and .def_41 .def_47))
(define-fun .def_49 () Bool (and .loc.11 .def_48))
(define-fun .def_35 () Int (* (- 1) .y.8))
(define-fun .def_36 () Int (+ .def_10 .def_35))
(define-fun .def_37 () Bool (= .def_36 (- 1)))
(define-fun .def_29 () Int (+ .def_12 .def_26))
(define-fun .def_30 () Int (+ .def_10 .def_29))
(define-fun .def_31 () (Array Int Int) (store .def_8 .def_10 .def_30))
(define-fun .def_32 () Bool (= .y.7 .def_31))
(define-fun .def_24 () Bool (= .def_12 .y.9))
(define-fun .def_22 () Bool (= .def_14 .y.10))
(define-fun .def_20 () Bool (not .def_19))
(define-fun .def_18 () Bool (not .loc.11))
(define-fun .def_21 () Bool (and .def_18 .def_20))
(define-fun .def_23 () Bool (and .def_21 .def_22))
(define-fun .def_25 () Bool (and .def_23 .def_24))
(define-fun .def_33 () Bool (and .def_25 .def_32))
(define-fun .def_38 () Bool (and .def_33 .def_37))
(define-fun .def_50 () Bool (or .def_38 .def_49))
(define-fun .def_56 () Bool (! (and .def_50 .def_55) :trans true))
(assert true)
